data;

param n:=29;
param p:=3;
param r:=[1] 0 [2] 3 [3] 3 [4] 2 [5] 12 [6] 8 [7] 3 [8] 16 [9] 19 [10] 12 [11] 19 [12] 33 [13] 29 [14] 15 [15] 11 [16] 42 [17] 34 [18] 3 [19] 2 [20] 11 [21] 56 [22] 17 [23] 61 [24] 58 [25] 43 [26] 30 [27] 24 [28] 32 [29] 69 ;
param w:=[1] 43 [2] 60 [3] 89 [4] 59 [5] 6 [6] 34 [7] 28 [8] 90 [9] 79 [10] 54 [11] 8 [12] 22 [13] 67 [14] 58 [15] 73 [16] 27 [17] 20 [18] 40 [19] 51 [20] 97 [21] 11 [22] 60 [23] 74 [24] 74 [25] 82 [26] 89 [27] 78 [28] 5 [29] 39 ;

end;
